--- Job Ejercicio 1.gms Start 10/31/23 09:50:28 44.1.1 27c4d1f8 WEX-WEI x86 64bit/MS Windows
--- Applying:
    C:\GAMS\44\gmsprmNT.txt
--- GAMS Parameters defined
    Input "C:\Users\El supremo\Documents\MOS\Laboratorio 2\Ejercicio 1.gms"
    PageSize 0
    ScrDir "C:\Users\El supremo\Documents\MOS\Laboratorio 2\225a\"
    SysDir C:\GAMS\44\
    LogOption 3
    ErrMsg 1
    ErrorLog 99
    IDE 1
    LstTitleLeftAligned 1
Licensee: GAMS Demo license for Paola Campino            G230808|0002CO-GEN
          Universidad de los Andes, Colombia                       DL096105
          C:\Users\El supremo\Documents\GAMS\gamslice.txt
          p.campino@uniandes.edu.co, Paola Campino                         
          Demo license for demonstration and instructional purposes only
Processor information: 1 socket(s), 4 core(s), and 8 thread(s) available
GAMS 44.1.1   Copyright (C) 1987-2023 GAMS Development. All rights reserved
--- Starting compilation
--- Ejercicio 1.gms(101) 3 Mb
--- Starting execution: elapsed 0:00:00.316
--- Ejercicio 1.gms(83) 4 Mb
--- Generating MIP model model1
--- Ejercicio 1.gms(84) 4 Mb
---   11 rows  25 columns  73 non-zeroes
--- Range statistics (absolute non-zero finite values)
--- RHS       [min, max] : [ 5.000E+01, 1.200E+02] - Zero values observed as well
--- Bound     [min, max] : [        NA,        NA] - Zero values observed as well
--- Matrix    [min, max] : [ 1.000E+00, 9.990E+02]
--- Executing CPLEX (Solvelink=2): elapsed 0:00:02.922

IBM ILOG CPLEX   44.1.1 27c4d1f8 Aug 3, 2023           WEI x86 64bit/MS Window

--- *** This solver runs with a demo license. No commercial use.
--- GMO setup time: 0.00s
--- GMO memory 0.50 Mb (peak 0.50 Mb)
--- Dictionary memory 0.00 Mb
--- Cplex 22.1.1.0 link memory 0.00 Mb (peak 0.00 Mb)
--- Starting Cplex

Version identifier: 22.1.1.0 | 2022-11-27 | 9160aff4d
CPXPARAM_Advance                                 0
CPXPARAM_Simplex_Display                         2
CPXPARAM_Threads                                 1
CPXPARAM_MIP_Display                             4
CPXPARAM_MIP_Pool_Capacity                       0
CPXPARAM_MIP_Tolerances_AbsMIPGap                0
Tried aggregator 1 time.
LP Presolve eliminated 0 rows and 1 columns.
Reduced LP has 10 rows, 24 columns, and 48 nonzeros.
Presolve time = 0.00 sec. (0.02 ticks)

Iteration      Dual Objective            In Variable           Out Variable
     1           36000.000000               x(d4,o5)  retriccion1(d4) artif
     2           56000.000000               x(d1,o2)  retriccion1(d1) artif
     3           83000.000000               x(d2,o2)  retriccion1(d2) artif
     4           83000.000000               x(d2,o3)  retriccion2(o2) slack
     5           95000.000000               x(d3,o5)  retriccion1(d3) artif
     6           95000.000000               x(d4,o6)  retriccion2(o5) slack
     7          103000.000000               x(d3,o4)  retriccion2(o6) slack
     8          109000.000000               x(d1,o1)  retriccion2(o3) slack
     9          111000.000000               x(d4,o4)               x(d3,o5)

--- LP status (1): optimal.
--- Cplex Time: 0.02sec (det. 0.03 ticks)


Optimal solution found
Objective:       111000.000000

--- Reading solution for model model1
--- Executing after solve: elapsed 0:00:08.356
--- Ejercicio 1.gms(87) 4 Mb
*** Status: Normal completion
--- Job Ejercicio 1.gms Stop 10/31/23 09:50:37 elapsed 0:00:08.357
